SDVRP instances/custom_instances/p03_15_split0.vrp
NAME:p03_15_split
BEST_KNOWN: 0
COMMENT: 0
DIMENSION: 436
CAPACITY: 200
EDGE_WEIGHT_FORMAT: FUNCTION
EDGE_WEIGHT_TYPE: EXACT_2D
NODE_COORD_SECTION
1 0.00000 0.00000
2 -50 44
3 -50 44
4 -50 44
5 -42 7
6 -42 7
7 -42 7
8 -42 7
9 -42 7
10 -42 7
11 -42 7
12 -5 2
13 -5 2
14 -5 2
15 -5 2
16 -5 2
17 -27 -35
18 -27 -35
19 -27 -35
20 -30 -24
21 -30 -24
22 -30 -24
23 -30 -24
24 -46 28
25 -46 28
26 -46 28
27 -46 28
28 -46 28
29 -46 28
30 40 23
31 40 23
32 40 23
33 28 -26
34 28 -26
35 28 -26
36 28 -26
37 28 -26
38 28 -26
39 -44 -41
40 -44 -41
41 -44 -41
42 -44 -41
43 -44 -41
44 -44 -41
45 -44 -41
46 -30 14
47 -30 14
48 -30 14
49 -30 14
50 -30 14
51 8 -29
52 8 -29
53 8 -29
54 8 -29
55 8 -29
56 8 -29
57 17 23
58 17 23
59 17 23
60 17 23
61 10 14
62 10 14
63 10 14
64 34 -42
65 34 -42
66 34 -42
67 34 -42
68 13 1
69 13 1
70 13 1
71 -41 2
72 -41 2
73 -41 2
74 -41 2
75 -41 2
76 -41 2
77 -31 -5
78 -31 -5
79 -31 -5
80 -31 -5
81 -31 -5
82 -31 -5
83 -31 -5
84 37 18
85 37 18
86 37 18
87 40 -27
88 40 -27
89 40 -27
90 40 -27
91 -14 7
92 -14 7
93 -14 7
94 -4 -42
95 -4 -42
96 -4 -42
97 -4 -42
98 -4 -42
99 26 -11
100 26 -11
101 26 -11
102 26 -11
103 26 -11
104 -14 -41
105 -14 -41
106 -14 -41
107 -14 -41
108 -14 -41
109 -14 -41
110 -37 -26
111 -37 -26
112 -37 -26
113 -37 -26
114 -37 -26
115 -37 -26
116 -37 -26
117 47 26
118 47 26
119 47 26
120 25 -36
121 25 -36
122 25 -36
123 25 -36
124 -48 -29
125 -48 -29
126 -48 -29
127 -48 -29
128 -28 1
129 -28 1
130 -28 1
131 -28 1
132 -28 1
133 -28 1
134 -16 -17
135 -16 -17
136 -16 -17
137 -16 -17
138 35 -42
139 35 -42
140 35 -42
141 35 -42
142 35 -42
143 35 -42
144 18 -30
145 18 -30
146 18 -30
147 18 -30
148 18 -30
149 10 37
150 10 37
151 10 37
152 10 37
153 48 11
154 48 11
155 48 11
156 48 11
157 -40 36
158 -40 36
159 -40 36
160 -40 36
161 -40 36
162 -40 36
163 -40 36
164 12 -34
165 -37 -4
166 -37 -4
167 -15 -1
168 -15 -1
169 -15 -1
170 5 -17
171 5 -17
172 5 -17
173 41 -27
174 41 -27
175 41 -27
176 41 -27
177 41 -27
178 -35 33
179 -35 33
180 -35 33
181 -35 33
182 -35 33
183 50 6
184 50 6
185 50 6
186 50 6
187 50 6
188 -34 22
189 -34 22
190 1 19
191 1 19
192 1 19
193 1 19
194 8 -39
195 8 -39
196 8 -39
197 8 -39
198 8 -39
199 34 11
200 34 11
201 34 11
202 34 11
203 27 19
204 27 19
205 27 19
206 27 19
207 27 19
208 25 2
209 25 2
210 25 2
211 25 2
212 -45 34
213 -45 34
214 -45 34
215 -45 34
216 -45 34
217 -45 34
218 40 -4
219 40 -4
220 40 -4
221 40 -4
222 40 -4
223 -16 -16
224 -16 -16
225 -39 22
226 -39 22
227 -39 22
228 -39 22
229 44 18
230 44 18
231 44 18
232 44 18
233 44 18
234 44 18
235 44 18
236 44 18
237 -45 -32
238 -45 -32
239 -45 -32
240 17 -20
241 17 -20
242 17 -20
243 17 -20
244 17 -20
245 -17 31
246 -17 31
247 -17 31
248 -17 31
249 15 36
250 9 34
251 9 34
252 9 34
253 9 34
254 9 34
255 9 34
256 9 34
257 9 34
258 33 -5
259 33 -5
260 -10 36
261 -10 36
262 -10 36
263 -10 36
264 -10 36
265 -10 36
266 11 7
267 11 7
268 11 7
269 11 7
270 11 7
271 13 31
272 13 31
273 13 31
274 13 31
275 13 31
276 19 -14
277 19 -14
278 -26 5
279 -26 5
280 -26 5
281 -26 5
282 -26 5
283 -26 5
284 16 -7
285 16 -7
286 16 -7
287 16 -7
288 16 -7
289 16 -7
290 15 -7
291 15 -7
292 9 14
293 9 14
294 9 14
295 -37 43
296 -37 43
297 -37 43
298 -37 43
299 -37 43
300 -37 43
301 -1 -9
302 -1 -9
303 -1 -9
304 8 -11
305 8 -11
306 8 -11
307 -45 19
308 -45 19
309 38 11
310 38 11
311 38 11
312 38 11
313 38 11
314 21 -29
315 21 -29
316 21 -29
317 21 -29
318 21 -29
319 21 -29
320 -50 -38
321 -50 -38
322 -50 -38
323 -50 -38
324 -50 -38
325 45 26
326 45 26
327 45 26
328 30 -29
329 30 -29
330 30 -29
331 30 -29
332 27 11
333 27 11
334 27 11
335 27 11
336 -7 45
337 -7 45
338 -7 45
339 -7 45
340 -7 45
341 -17 -38
342 -17 -38
343 -17 -38
344 24 -1
345 24 -1
346 -42 -20
347 -42 -20
348 -42 -20
349 -15 -44
350 -15 -44
351 -15 -44
352 -15 -44
353 -15 -44
354 38 -4
355 38 -4
356 38 -4
357 38 -4
358 38 -4
359 3 0
360 3 0
361 3 0
362 3 0
363 2 -40
364 2 -40
365 -12 -13
366 -12 -13
367 -12 -13
368 44 20
369 44 20
370 44 20
371 44 20
372 44 20
373 44 20
374 44 20
375 -15 36
376 -15 36
377 -15 36
378 -15 36
379 -15 36
380 -15 36
381 -15 36
382 -15 36
383 40 -28
384 40 -28
385 40 -28
386 40 -28
387 16 14
388 16 14
389 16 14
390 16 14
391 -2 39
392 -2 39
393 -2 39
394 -2 39
395 -2 39
396 -2 39
397 24 -37
398 24 -37
399 24 -37
400 -33 -7
401 -33 -7
402 -33 -7
403 -33 -7
404 -33 -7
405 -33 -7
406 -33 -7
407 -39 15
408 -39 15
409 -39 15
410 -39 15
411 -39 15
412 -39 15
413 -50 -1
414 -50 -1
415 -50 -1
416 -50 -1
417 44 -12
418 44 -12
419 -5 21
420 -5 21
421 -23 -17
422 -23 -17
423 -23 -17
424 49 -41
425 49 -41
426 49 -41
427 49 -41
428 -29 -19
429 -29 -19
430 -29 -19
431 -29 -19
432 -29 -19
433 -29 -19
434 -5 0
435 -5 0
436 -5 0
DEMAND_SECTION
1 0
2 40
3 40
4 10
5 20
6 10
7 2
8 2
9 2
10 2
11 1
12 40
13 10
14 2
15 2
16 2
17 40
18 40
19 20
20 40
21 10
22 2
23 2
24 40
25 20
26 2
27 2
28 2
29 2
30 40
31 40
32 20
33 40
34 40
35 10
36 2
37 2
38 2
39 40
40 20
41 10
42 2
43 2
44 2
45 1
46 40
47 10
48 2
49 2
50 2
51 40
52 40
53 2
54 2
55 2
56 2
57 40
58 40
59 10
60 2
61 40
62 40
63 1
64 40
65 40
66 10
67 2
68 20
69 10
70 2
71 40
72 40
73 2
74 2
75 2
76 2
77 40
78 20
79 10
80 2
81 2
82 2
83 1
84 40
85 40
86 10
87 40
88 2
89 2
90 2
91 40
92 40
93 20
94 40
95 20
96 2
97 2
98 2
99 20
100 10
101 2
102 2
103 1
104 40
105 20
106 10
107 2
108 2
109 2
110 40
111 40
112 10
113 2
114 2
115 2
116 1
117 40
118 10
119 2
120 20
121 2
122 2
123 1
124 20
125 2
126 2
127 2
128 40
129 2
130 2
131 2
132 2
133 1
134 40
135 40
136 2
137 1
138 40
139 10
140 2
141 2
142 2
143 1
144 20
145 10
146 2
147 2
148 1
149 20
150 10
151 2
152 1
153 40
154 20
155 10
156 1
157 20
158 10
159 2
160 2
161 2
162 2
163 1
164 40
165 40
166 20
167 40
168 20
169 10
170 20
171 10
172 1
173 40
174 2
175 2
176 2
177 1
178 40
179 2
180 2
181 2
182 1
183 40
184 2
185 2
186 2
187 2
188 40
189 2
190 40
191 10
192 2
193 1
194 40
195 20
196 2
197 2
198 1
199 40
200 40
201 2
202 2
203 40
204 20
205 2
206 2
207 2
208 20
209 2
210 2
211 1
212 40
213 40
214 2
215 2
216 2
217 2
218 40
219 10
220 2
221 2
222 2
223 40
224 40
225 40
226 10
227 2
228 2
229 40
230 40
231 10
232 2
233 2
234 2
235 2
236 1
237 40
238 20
239 1
240 40
241 10
242 2
243 2
244 1
245 20
246 10
247 2
248 1
249 40
250 40
251 40
252 10
253 2
254 2
255 2
256 2
257 1
258 20
259 10
260 40
261 20
262 10
263 2
264 2
265 2
266 40
267 40
268 2
269 2
270 1
271 40
272 40
273 10
274 2
275 1
276 20
277 10
278 40
279 20
280 10
281 2
282 2
283 1
284 40
285 10
286 2
287 2
288 2
289 1
290 40
291 1
292 40
293 20
294 2
295 20
296 10
297 2
298 2
299 2
300 1
301 40
302 40
303 1
304 40
305 20
306 1
307 40
308 40
309 40
310 20
311 10
312 2
313 2
314 20
315 10
316 2
317 2
318 2
319 1
320 40
321 40
322 10
323 2
324 2
325 20
326 10
327 1
328 40
329 40
330 2
331 2
332 20
333 2
334 2
335 2
336 40
337 40
338 10
339 2
340 2
341 20
342 10
343 2
344 20
345 10
346 40
347 20
348 2
349 40
350 40
351 10
352 2
353 2
354 20
355 2
356 2
357 2
358 1
359 40
360 40
361 2
362 2
363 40
364 2
365 40
366 20
367 2
368 40
369 20
370 10
371 2
372 2
373 2
374 2
375 40
376 40
377 10
378 2
379 2
380 2
381 2
382 1
383 40
384 2
385 2
386 1
387 40
388 20
389 10
390 1
391 40
392 20
393 2
394 2
395 2
396 1
397 40
398 2
399 2
400 40
401 10
402 2
403 2
404 2
405 2
406 1
407 40
408 40
409 2
410 2
411 2
412 1
413 40
414 2
415 2
416 2
417 40
418 10
419 40
420 10
421 40
422 20
423 1
424 40
425 2
426 2
427 1
428 40
429 40
430 10
431 2
432 2
433 2
434 20
435 10
436 2
DEPOT_SECTION
1
-1
EOF