SDVRP instances/custom_instances/p03_15_split0.sol
435 -14 13 12 11 15 -22 21 20 19 238 237 236 123 124 346 345 347 -27 26 28 23 25 24 211 215 216 213 214 212 180 177 -30 31 29 324 326 325 117 118 116 85 333 332 -40 39 43 38 42 41 44 323 320 322 319 321 125 126 433 435 -47 45 48 49 46 411 408 406 407 10 8 9 7 6 5 4 167 -55 52 197 193 196 194 195 363 362 93 95 94 96 97 -59 56 58 57 202 205 206 203 204 266 269 -61 62 60 389 387 388 386 267 265 268 -66 65 64 63 138 140 137 139 141 142 423 424 425 426 -67 343 344 221 217 218 219 220 357 354 353 356 355 258 257 102 100 98 101 99 -69 68 210 208 209 207 312 311 310 309 308 199 198 201 200 -81 165 164 414 415 412 413 72 70 75 71 73 74 131 129 -84 83 153 154 155 152 186 183 185 182 184 -91 90 280 281 282 277 278 279 166 -92 409 410 307 306 225 224 226 227 188 187 -106 104 108 107 103 105 350 352 348 349 351 341 340 -112 115 113 114 111 109 110 16 18 17 342 -145 143 147 146 144 398 396 397 121 122 119 120 316 318 315 317 314 313 241 240 242 239 243 -170 171 169 163 53 51 54 50 300 -179 178 181 159 162 158 157 160 156 161 1 3 2 299 296 294 298 295 297 245 247 246 419 -189 192 191 190 271 270 274 272 273 291 293 -222 223 133 136 135 134 366 365 -244 378 379 374 377 376 375 380 381 259 418 -256 253 251 249 250 254 255 252 151 149 150 148 248 292 -260 264 262 263 261 337 335 338 336 339 395 391 392 393 394 390 -275 32 33 36 35 37 34 328 330 329 327 -276 86 88 87 89 384 383 385 382 172 173 175 174 176 416 417 -290 289 288 285 286 283 284 287 303 305 304 302 301 -334 331 230 233 229 235 228 231 234 232 368 367 373 372 370 369 371 -358 359 -360 361 -364 422 421 420 427 428 430 431 429 432 -403 402 404 401 400 405 399 80 77 79 76 78 82 127 132 128 130 168 434 0 





OBJ=
2837.035
BEST_KNOWN=
0.000